NAME : AA65.2250204.tour
COMMENT : Cost = 0_2250204
COMMENT : Found by LKH [Keld Helsgaun] Sun Apr 23 15:14:35 2017
TYPE : TOUR
DIMENSION : 134
TOUR_SECTION
1
10
75
13
78
59
32
97
124
45
110
36
101
23
88
57
122
46
111
33
39
98
104
52
117
28
3
93
68
47
112
134
54
119
66
18
131
83
31
96
15
80
63
128
12
77
61
126
4
69
51
116
19
84
56
121
20
9
85
74
14
79
16
81
21
5
70
86
38
103
133
50
48
115
113
25
90
2
58
123
43
67
24
89
108
27
92
29
94
26
44
91
109
22
87
49
114
34
99
30
95
132
17
82
41
106
11
76
60
125
62
127
55
120
37
102
64
129
35
100
40
105
53
118
7
72
6
71
42
107
8
73
65
130
-1
EOF
